<number of tasks>
20

<cycle time>
1000

<order strength>
0,5


<task times>
1 122
2 196
3 342
4 113
5 109
6 136
7 158
8 27
9 147
10 100
11 82
12 111
13 78
14 51
15 153
16 229
17 210
18 160
19 112
20 155

<precedence relations>
1,5
2,6
3,7
3,8
4,8
5,11
6,9
7,10
8,11
9,12
10,13
11,13
12,14
13,15
13,16
13,17
14,18
15,18
15,19
15,20
16,18
16,19
17,19
17,20

<end>
